20	5
0	9	2	3	8	5	7	9	1	6	4
1	1	15
2	2	20	19
3	3	18	15	13
4	2	15	12
5	4	15	18	17	12
6	3	17	18	14
7	4	14	15	18	17
8	4	18	17	15	12
9	2	16	20
10	1	13
11	2	15	12
12	1	10
13	1	19
14	1	12
15	1	19
16	0
17	2	20	10
18	2	19	20
19	1	21
20	1	21
21	0
0	0	0	0	0	0	0
1	10	1	1	3	5	3
2	3	0	1	0	0	0
3	8	0	3	0	0	5
4	10	0	1	0	0	0
5	7	0	2	0	5	3
6	3	0	4	0	0	0
7	10	0	5	1	3	5
8	4	0	4	2	2	1
9	2	2	0	2	0	3
10	6	2	0	4	5	0
11	3	0	0	2	4	4
12	6	2	0	0	5	0
13	1	2	1	0	0	0
14	10	0	3	0	1	0
15	5	0	1	2	1	0
16	9	0	5	1	0	3
17	3	0	0	0	0	4
18	1	0	0	4	2	0
19	7	4	0	0	0	2
20	1	2	5	0	0	4
21	0	0	0	0	0	0
4	5	5	5	5
